c This is an instance of the exact track of PACE 2020 Challenge, see https://pacechallenge.org/2020/ 
c TYPE: generated 
c ORIGIN: Python networkx package 
c DESCRIPTION: A random cubic graph generated using random_regular_graph function from Python’s networkx package 
p tdp 80 120
1 2
1 7
1 3
2 60
2 12
3 4
3 59
4 10
4 71
5 6
5 61
5 48
6 27
6 53
7 59
7 56
8 9
8 10
8 43
9 78
9 45
10 22
11 12
11 45
11 80
12 72
13 14
13 65
13 19
14 39
14 44
15 16
15 21
15 35
16 48
16 76
17 18
17 24
17 75
18 48
18 24
19 20
19 40
20 63
20 69
21 65
21 69
22 23
22 36
23 72
23 57
24 36
25 26
25 27
25 33
26 58
26 57
27 30
28 29
28 45
28 58
29 41
29 55
30 31
30 72
31 68
31 47
32 33
32 41
32 76
33 40
34 35
34 54
34 46
35 49
36 37
37 38
37 51
38 44
38 56
39 71
39 54
40 66
41 57
42 43
42 47
42 80
43 70
44 52
46 47
46 69
49 73
49 53
50 51
50 56
50 71
51 74
52 53
52 74
54 55
55 67
58 78
59 60
60 64
61 62
61 76
62 73
62 63
63 79
64 67
64 66
65 73
66 68
67 68
70 77
70 80
74 75
75 79
77 78
77 79
